1126.97 0
0 52 54 57 59 65 61 62 64 66 63 60 56 58 55 53 104 0 
0 120 105 106 107 103 116 100 99 101 102 96 93 87 86 111 82 119 0 
0 81 2 1 15 14 13 8 12 16 23 26 20 21 109 114 91 0 
0 85 108 17 19 22 24 25 27 33 30 31 28 32 35 34 36 29 115 97 94 95 0 
0 92 89 90 18 118 7 9 10 11 4 3 5 6 83 113 117 84 112 88 0 
0 37 38 39 42 41 44 47 46 49 50 51 48 45 43 40 110 0 
0 98 68 73 76 77 79 80 78 72 75 74 71 70 69 67 0 
